(set-logic ALL)
(declare-fun i1 () Int)
(declare-fun it379 () Int)
(declare-fun it380 () Int)
(declare-fun it15 () Int)
(declare-fun it14 () Int)
(declare-fun it381 () Int)
(declare-fun it382 () Int)
(declare-fun it13 () Int)
(declare-fun bt437 () Bool)
(declare-fun bt438 () Bool)
(declare-fun bt439 () Bool)
(declare-fun bt440 () Bool)
(declare-fun it16 () Int)
(declare-fun it17 () Int)
(declare-fun it18 () Int)
(declare-fun bt25 () Bool)
(declare-fun bt28 () Bool)
(declare-fun bt26 () Bool)
(declare-fun bt27 () Bool)
(declare-fun it386 () Int)
(declare-fun it387 () Int)
(declare-fun it388 () Int)
(declare-fun it389 () Int)
(declare-fun bt441 () Bool)
(declare-fun bt442 () Bool)
(declare-fun bt443 () Bool)
(declare-fun bt444 () Bool)
(declare-fun it391 () Int)
(declare-fun it390 () Int)
(declare-fun bt448 () Bool)
(declare-fun bt447 () Bool)
(declare-fun it392 () Int)
(declare-fun bt446 () Bool)
(declare-fun bt445 () Bool)
(declare-fun it536 () Int)
(declare-fun it537 () Int)
(declare-fun it538 () Int)
(declare-fun it539 () Int)
(declare-fun bt609 () Bool)
(declare-fun bt610 () Bool)
(declare-fun bt611 () Bool)
(declare-fun bt612 () Bool)
(declare-fun bt615 () Bool)
(declare-fun it541 () Int)
(declare-fun bt616 () Bool)
(declare-fun it542 () Int)
(declare-fun it540 () Int)
(declare-fun bt614 () Bool)
(declare-fun bt613 () Bool)
(declare-fun it567 () Int)
(declare-fun it568 () Int)
(declare-fun it569 () Int)
(declare-fun it570 () Int)
(declare-fun bt641 () Bool)
(declare-fun bt642 () Bool)
(declare-fun bt643 () Bool)
(declare-fun bt644 () Bool)
(declare-fun it155 () Int)
(assert (= (+ i1 (- 1)) 0))
(assert (= (+ it379 (- 2)) 0))
(assert (= (+ (* it15 (- 1)) it380) 0))
(assert (= (+ it381 (* it14 (- 1))) 0))
(assert (= (+ (* it13 (- 1)) it382) 0))
(assert (or (and false bt437) (not bt437)))
(assert (or bt438 (and false (not bt438))))
(assert (or (not bt439) (and false bt439)))
(assert (or (not bt440) (and false bt440)))
(assert (and bt27
     (not bt26)
     (not bt28)
     (not bt25)
     (= (+ it18 (- 1)) 0)
     (= (+ it379 (- 2)) 0)
     (not bt439)
     (= (+ it381 (* it17 (- 1))) 0)
     (not bt437)
     (= (+ (* it16 (- 1)) it382) 0)
     bt438
     (not bt440)))
(assert (= (+ it386 (- 2)) 0))
(assert (= (+ it387 (* it18 (- 1))) 0))
(assert (= (+ (* it17 (- 1)) it388) 0))
(assert (= (+ (* it16 (- 1)) it389) 0))
(assert (or (and bt27 bt441) (and (not bt27) (not bt441))))
(assert (or (and bt28 bt442) (and (not bt28) (not bt442))))
(assert (or (and bt26 bt443) (and (not bt26) (not bt443))))
(assert (or (and bt25 bt444) (and (not bt25) (not bt444))))
(assert (and bt441
     bt445
     bt446
     (not bt442)
     (not bt444)
     (not bt443)
     (= (+ (* it392 (- 1)) it389) 0)
     (= (+ it386 (- 2)) 0)
     (not bt447)
     (> (+ (* it387 (- 1)) it389) 0)
     (not bt448)
     (= (+ (* it390 (- 1)) it387) 0)
     (= (+ (* it391 (- 1)) it388) 0)))
(assert (= (+ it536 (- 2)) 0))
(assert (= (+ (* it390 (- 1)) it537) 0))
(assert (= (+ (* it391 (- 1)) it538) 0))
(assert (= (+ it539 (* it392 (- 1))) 0))
(assert (or (and bt609 bt446) (and (not bt609) (not bt446))))
(assert (or (and bt445 bt610) (and (not bt610) (not bt445))))
(assert (or (and bt447 bt611) (and (not bt611) (not bt447))))
(assert (or (and bt448 bt612) (and (not bt612) (not bt448))))
(assert (and bt609
     (not bt613)
     bt610
     (<= it538 0)
     (not bt611)
     bt614
     (= (+ (* it540 (- 1)) it537) 0)
     (= (+ it536 (- 2)) 0)
     (= (+ it539 (* it542 (- 1))) 0)
     (not bt616)
     (= (+ it538 (* it541 (- 1))) 0)
     (not bt612)
     bt615))
(assert (= (+ it567 (- 2)) 0))
(assert (= (+ it568 (* it540 (- 1))) 0))
(assert (= (+ it569 (* it541 (- 1))) 0))
(assert (= (+ (* it542 (- 1)) it570) 0))
(assert (or (and bt641 bt614) (and (not bt641) (not bt614))))
(assert (or (and bt642 bt613) (and (not bt642) (not bt613))))
(assert (or (and bt643 bt615) (and (not bt643) (not bt615))))
(assert (or (and bt644 bt616) (and (not bt644) (not bt616))))
(assert (let ((a!1 (+ (* (+ 0 it568) (exp 2 (+ it155 (- 1))) (+ 0 (- 1)))
              (+ 0 it570))))
  (and (not bt642)
       bt641
       (> it569 0)
       (>= (+ (* it567 (- 1)) 2) 0)
       (not bt643)
       (> a!1 (+ 0 0))
       (> (+ (* it568 (- 1)) it570) 0)
       (>= (+ it155 (- 1)) 0)
       (>= (+ it567 (- 2)) 0)
       (not bt644))))
(check-sat)
